etc/upTests/_matrixes/setMinSize/0003.eprime
language ESSENCE' 1.0

find m_SetExplicitVarSizeWithMarker_tuple1:
        matrix indexed by [int(4, 5)] of int(0..3)
find m_SetExplicitVarSizeWithMarker_tuple2:
        matrix indexed by [int(4, 5), int(1..3)] of int(6..8)
such that
    forAll v__0 : int(4, 5) . m_SetExplicitVarSizeWithMarker_tuple1[v__0] >= 1,
    forAll v__0 : int(4, 5)
        . (forAll v__1 : int(1..3)
               . v__1 + 1 <= m_SetExplicitVarSizeWithMarker_tuple1[v__0]
                 ->
                 m_SetExplicitVarSizeWithMarker_tuple2[v__0, v__1]
                 <
                 m_SetExplicitVarSizeWithMarker_tuple2[v__0, v__1 + 1])
