etc/upTests/_matrixes/setMinSize/0003.eprime.solution
language ESSENCE' 1.0
$ minion Nodes: 9
$ minion TotalTime: 0.000627
$ Savile Row TotalTime: 0.417
letting m_SetExplicitVarSizeWithMarker_tuple2 be [[6, 6, 6;int(1..3)], 
[6, 6, 6;int(1..3)];int(4,5)]
letting m_SetExplicitVarSizeWithMarker_tuple1 be [1, 1;int(4,5)]
